80 859641668
2 47 28 31 57 54 59 39 76 72 3 60 58 61 74 11 16 48 12 36 5 79 40 26 71 73 43 80 66 8 22 23 64 30 62 18 69 46 78 65 41 19 32 21 17 6 9 24 42 70 10 67 15 49 7 53 27 33 4 35 29 77 56 34 68 13 20 52 1 14 38 51 44 63 45 75 37 55 25 50 
